32      4       
16      17      14      11      
0       0       0       0       0       12      2       3       4       6       7       10      11      12      13      21      22      31      
10      1       4       7       4       4       28      19      18      5       
8       1       1       6       1       6       30      20      18      17      16      14      
1       7       1       1       5       4       29      24      18      9       
2       7       11      6       1       2       17      8       
8       1       9       6       8       4       25      17      16      15      
2       10      1       2       5       5       27      26      25      23      17      
5       8       6       3       1       2       25      9       
8       2       2       4       4       3       26      23      16      
7       1       8       4       1       3       24      19      18      
9       7       6       9       4       3       25      24      23      
1       2       1       2       1       2       23      16      
2       3       4       4       3       2       24      20      
6       1       9       7       5       2       26      25      
9       8       2       6       2       2       26      23      
1       1       1       1       1       1       27      
5       1       11      1       1       1       24      
8       4       5       1       5       1       25      
9       5       1       1       1       1       25      
3       1       1       1       4       1       23      
2       1       3       4       1       1       24      
2       1       11      2       1       1       24      
10      3       8       5       5       1       32      
1       1       3       4       5       1       32      
6       8       1       3       1       1       32      
9       3       1       1       1       1       32      
7       6       8       1       3       1       32      
5       11      3       1       1       1       32      
4       1       1       10      1       1       32      
2       11      1       1       6       1       32      
3       3       4       1       1       1       32      
0       0       0       0       0       0       
